param set_len = 56;
param target_sum = 16289577084;
param values := [1] 919333335 [2] 179664187 [3] 859989701 [4] 1062533405 [5] 517371578 [6] 782047415 [7] 1027669337 [8] 173866287 [9] 12995820 [10] 492495802 [11] 462634798 [12] 887353476 [13] 780810810 [14] 594153763 [15] 22225360 [16] 1056633582 [17] 650068013 [18] 647175083 [19] 878675258 [20] 944937752 [21] 1005272313 [22] 354341377 [23] 674232805 [24] 193179367 [25] 531056835 [26] 685419766 [27] 648110179 [28] 485451165 [29] 941221028 [30] 934438372 [31] 664459729 [32] 834680840 [33] 571565801 [34] 178031500 [35] 108090412 [36] 419875766 [37] 677576587 [38] 798690246 [39] 232897465 [40] 19753649 [41] 96583229 [42] 499546888 [43] 932586605 [44] 360337346 [45] 555382582 [46] 373154566 [47] 273317716 [48] 221051970 [49] 1017265520 [50] 10820347 [51] 60876187 [52] 637894561 [53] 459421875 [54] 130278516 [55] 780803404 [56] 720886710 ;
